(set-logic QF_LRA)
(declare-const a Real)
(declare-const b Real)
(declare-const c Real)
(assert (= a (/ 1 5)))
(assert (= b (/ 2 5)))
(assert (= c (/ 3 5)))
(assert (< a b))
(assert (< b c))
(assert (>= a c))
(check-sat)
